Version identifier: 20.1.0.0 | 2020-11-10 | 9bedb6d68
Tried aggregator 2 times.
MIP Presolve eliminated 1853 rows and 1082 columns.
MIP Presolve modified 3488 coefficients.
Aggregator did 200 substitutions.
Reduced MIP has 1553 rows, 1325 columns, and 4999 nonzeros.
Reduced MIP has 394 binaries, 931 generals, 0 SOSs, and 0 indicators.
Presolve time = 0.02 sec. (8.04 ticks)
Found incumbent of value 110.000000 after 0.03 sec. (13.87 ticks)
Probing fixed 40 vars, tightened 261 bounds.
Probing time = 0.00 sec. (1.86 ticks)
Tried aggregator 1 time.
Detecting symmetries...
MIP Presolve eliminated 640 rows and 40 columns.
MIP Presolve modified 99 coefficients.
Reduced MIP has 913 rows, 1285 columns, and 3079 nonzeros.
Reduced MIP has 472 binaries, 813 generals, 0 SOSs, and 0 indicators.
Presolve time = 0.01 sec. (3.73 ticks)
Probing time = 0.00 sec. (0.30 ticks)
Clique table members: 121.
MIP emphasis: balance optimality and feasibility.
MIP search method: dynamic search.
Parallel mode: deterministic, using up to 24 threads.
Root relaxation solution time = 0.01 sec. (3.47 ticks)

        Nodes                                         Cuts/
   Node  Left     Objective  IInf  Best Integer    Best Bound    ItCnt     Gap

*     0+    0                          110.0000        0.0000           100.00%
      0     0        0.0000    52      110.0000        0.0000      290  100.00%
      0     0        0.0000   114      110.0000     Cuts: 221      660  100.00%
      0     0        0.0000   105      110.0000      Cuts: 52      743  100.00%
*     0+    0                           30.0000        0.0000           100.00%
      0     0        0.0357   199       30.0000      Cuts: 62      865   99.88%
      0     0        0.5000   151       30.0000      Cuts: 91      966   98.33%
      0     0        1.0000   177       30.0000      Cuts: 91     1013   96.67%
*     0+    0                           19.0000        1.0000            94.74%
      0     0        1.0251   371       19.0000      Cuts: 61     1243   10.53%
*     0+    0                           17.0000       17.0000             0.00%
      0     0        cutoff             17.0000       17.0000     1243    0.00%
Elapsed time = 0.39 sec. (134.06 ticks, tree = 0.01 MB, solutions = 4)

Implied bound cuts applied:  30
Flow cuts applied:  3
Mixed integer rounding cuts applied:  27
Zero-half cuts applied:  53
Lift and project cuts applied:  1
Gomory fractional cuts applied:  4

Root node processing (before b&c):
  Real time             =    0.39 sec. (134.20 ticks)
Parallel b&c, 24 threads:
  Real time             =    0.00 sec. (0.00 ticks)
  Sync time (average)   =    0.00 sec.
  Wait time (average)   =    0.00 sec.
                          ------------
Total (root+branch&cut) =    0.39 sec. (134.20 ticks)

Solution status = Optimal
Solution LB = 17
Solution UB = 17
Runtime = 0.400324 seconds
	Command being timed: "/home/min/git_repos/CS598MEBProject/CNT-ILP/build/cnt -s 2 ./output/k6_n40/simC_c1_k6_n40_u2_s3_del02.input-right.cnp"
	User time (seconds): 4.17
	System time (seconds): 0.13
	Percent of CPU this job got: 1002%
	Elapsed (wall clock) time (h:mm:ss or m:ss): 0:00.43
	Average shared text size (kbytes): 0
	Average unshared data size (kbytes): 0
	Average stack size (kbytes): 0
	Average total size (kbytes): 0
	Maximum resident set size (kbytes): 130788
	Average resident set size (kbytes): 0
	Major (requiring I/O) page faults: 0
	Minor (reclaiming a frame) page faults: 29764
	Voluntary context switches: 7251
	Involuntary context switches: 400
	Swaps: 0
	File system inputs: 0
	File system outputs: 16
	Socket messages sent: 0
	Socket messages received: 0
	Signals delivered: 0
	Page size (bytes): 4096
	Exit status: 0
